c Erdős-Rényi G(10, 0.5) with seed=42
c Generated using NetworkX
c Nodes: 10, Edges: 21
p edge 10 21
e 1 3
e 1 4
e 1 5
e 1 9
e 1 10
e 2 3
e 2 4
e 2 6
e 2 7
e 2 10
e 3 6
e 3 9
e 3 10
e 4 6
e 4 7
e 4 8
e 5 10
e 7 10
e 8 9
e 8 10
e 9 10
